(set-logic QF_S)
(declare-fun var0 () String)
(declare-fun var1 () String)
(declare-fun var2 () String)
(declare-fun var3 () String)
(declare-fun var4 () String)
(declare-fun var5 () String)
(declare-fun var6 () String)
(declare-fun var7 () String)
(declare-fun var8 () String)
(declare-fun var9 () String)
(declare-fun var10 () String)
(declare-fun var11 () String)
(declare-fun var12 () String)
(declare-fun var13 () String)
(declare-fun var14 () String)
(declare-fun var15 () String)
(declare-fun var16 () String)
(declare-fun var17 () String)
(declare-fun var18 () String)
(declare-fun var19 () String)
(declare-fun var20 () String)
(declare-fun var21 () String)
(declare-fun var22 () String)
(declare-fun var23 () String)
(declare-fun var24 () String)
(declare-fun var25 () String)
(declare-fun var26 () String)
(declare-fun var27 () String)
(declare-fun var28 () String)
(declare-fun var29 () String)
(declare-fun var30 () String)
(declare-fun var31 () String)
(declare-fun var32 () String)
(declare-fun var33 () String)
(declare-fun var34 () String)
(declare-fun var35 () String)
(declare-fun var36 () String)
(declare-fun var37 () String)
(declare-fun var38 () String)
(declare-fun var39 () String)
(declare-fun var40 () String)
(declare-fun var41 () String)
(declare-fun var42 () String)
(declare-fun var43 () String)
(declare-fun var44 () String)
(declare-fun var45 () String)
(declare-fun var46 () String)
(declare-fun var47 () String)
(declare-fun var48 () String)
(declare-fun var49 () String)
(declare-fun var50 () String)
(declare-fun var51 () String)
(declare-fun var52 () String)
(declare-fun var53 () String)
(declare-fun var54 () String)
(declare-fun var55 () String)
(declare-fun var56 () String)
(declare-fun var57 () String)
(declare-fun var58 () String)
(declare-fun var59 () String)
(declare-fun var60 () String)
(assert (= var0 (Concat var1 var2)))
(assert (= var2 (Concat var3 var4)))
(assert (= var4 (Concat var5 var6)))
(assert (= var6 (Concat var7 var8)))
(assert (= var8 (Concat var9 var10)))
(assert (= var10 (Concat var11 var12)))
(assert (= var12 (Concat var13 var14)))
(assert (= var14 (Concat var15 var16)))
(assert (= var16 (Concat var17 var18)))
(assert (= var18 (Concat var19 var20)))
(assert (= var20 (Concat var21 var22)))
(assert (= var22 (Concat var23 var24)))
(assert (= var24 (Concat var25 var26)))
(assert (= var26 (Concat var27 var28)))
(assert (= var28 (Concat var29 var30)))
(assert (= var30 (Concat var31 var32)))
(assert (= var32 (Concat var33 var34)))
(assert (= var34 (Concat var35 var36)))
(assert (= var36 (Concat var37 var38)))
(assert (= var38 (Concat var39 var40)))
(assert (= var40 (Concat var41 var42)))
(assert (= var42 (Concat var43 var44)))
(assert (= var44 (Concat var45 var46)))
(assert (= var46 (Concat var47 var48)))
(assert (= var48 (Concat var49 var50)))
(assert (= var50 (Concat var51 var52)))
(assert (= var52 (Concat var53 var54)))
(assert (= var54 (Concat var55 var56)))
(assert (= var56 (Concat var57 var58)))
(assert (= var58 (Concat var59 var60)))
(assert (= var0 "solution"))
(assert (= "Q" (CharAt var10 43)))
(assert (= "-" (CharAt var33 731)))
(assert (= "+" (CharAt var59 917)))
(assert (= "G" (CharAt var29 991)))
(assert (= ">" (CharAt var14 293)))
(assert (= "~" (CharAt var21 596)))
(assert (= "1" (CharAt var8 504)))
(assert (= "A" (CharAt var1 682)))
(assert (= "H" (CharAt var36 316)))
(assert (= "I" (CharAt var36 401)))
(assert (= "P" (CharAt var32 616)))
(assert (= "v" (CharAt var2 579)))
(assert (= "h" (CharAt var52 93)))
(assert (= ";" (CharAt var41 961)))
(assert (= "." (CharAt var59 261)))
(assert (= "7" (CharAt var3 365)))
(assert (= "3" (CharAt var40 338)))
(assert (= ":" (CharAt var37 149)))
(assert (= "k" (CharAt var33 948)))
(assert (= "{" (CharAt var20 896)))
(assert (= "u" (CharAt var5 583)))
(assert (= "F" (CharAt var17 779)))
(assert (= "\"" (CharAt var19 226)))
(assert (= "C" (CharAt var59 6)))
(assert (= "n" (CharAt var59 737)))
(assert (= "9" (CharAt var21 488)))
(assert (= "_" (CharAt var48 488)))
(assert (= "%" (CharAt var43 640)))
(assert (= "T" (CharAt var30 600)))
(assert (= "W" (CharAt var16 423)))
(assert (= "7" (CharAt var40 720)))
(assert (= ":" (CharAt var22 137)))
(assert (= "E" (CharAt var28 852)))
(assert (= "[" (CharAt var51 577)))
(assert (= "\\" (CharAt var7 504)))
(assert (= "b" (CharAt var4 772)))
(assert (= "R" (CharAt var0 898)))
(assert (= "g" (CharAt var47 140)))
(assert (= "e" (CharAt var52 992)))
(assert (= "7" (CharAt var24 657)))
(assert (= "-" (CharAt var35 550)))
(assert (= "j" (CharAt var38 818)))
(assert (= ")" (CharAt var35 684)))
(assert (= "j" (CharAt var49 778)))
(assert (= "!" (CharAt var40 354)))
(assert (= "'" (CharAt var45 651)))
(assert (= "j" (CharAt var46 870)))
(assert (= "Y" (CharAt var20 398)))
(assert (= "[" (CharAt var56 625)))
(assert (= "," (CharAt var6 413)))
(assert (= "W" (CharAt var50 163)))
(assert (= "." (CharAt var25 164)))
(assert (= "u" (CharAt var19 100)))
(assert (= "I" (CharAt var1 816)))
(assert (= "[" (CharAt var6 534)))
(assert (= "q" (CharAt var14 515)))
(assert (= "x" (CharAt var24 961)))
(assert (= "%" (CharAt var40 38)))
(assert (= "k" (CharAt var10 316)))
(assert (= "=" (CharAt var7 317)))
(assert (= "'" (CharAt var45 207)))
(assert (= "L" (CharAt var33 981)))
(assert (= "." (CharAt var2 709)))
(assert (= "d" (CharAt var56 773)))
(assert (= "f" (CharAt var28 796)))
(assert (= ")" (CharAt var1 653)))
(assert (= "8" (CharAt var44 341)))
(assert (= "[" (CharAt var45 569)))
(assert (= "n" (CharAt var51 430)))
(assert (= "@" (CharAt var54 15)))
(assert (= "1" (CharAt var1 551)))
(assert (= "5" (CharAt var41 366)))
(assert (= "V" (CharAt var47 220)))
(assert (= "Z" (CharAt var58 582)))
(assert (= "\"" (CharAt var55 855)))
(assert (= ")" (CharAt var26 863)))
(assert (= "[" (CharAt var8 719)))
(assert (= "d" (CharAt var34 176)))
(assert (= "a" (CharAt var15 241)))
(assert (= "{" (CharAt var16 692)))
(assert (= "A" (CharAt var51 751)))
(assert (= "F" (CharAt var0 65)))
(assert (= "s" (CharAt var55 469)))
(assert (= "`" (CharAt var13 168)))
(assert (= "}" (CharAt var42 841)))
(assert (= "b" (CharAt var32 6)))
(assert (= "?" (CharAt var20 85)))
(assert (= "1" (CharAt var12 262)))
(assert (= "J" (CharAt var9 319)))
(assert (= "V" (CharAt var36 141)))
(assert (= "-" (CharAt var53 697)))
(assert (= "\\" (CharAt var4 1)))
(assert (= "z" (CharAt var5 6)))
(assert (= "m" (CharAt var24 532)))
(assert (= "*" (CharAt var25 701)))
(assert (= "]" (CharAt var56 241)))
(assert (= "f" (CharAt var8 546)))
(assert (= "*" (CharAt var27 369)))
(assert (= "A" (CharAt var4 322)))
(assert (= "C" (CharAt var53 927)))
(assert (= "6" (CharAt var27 167)))
(assert (= "N" (CharAt var43 295)))
(assert (= "-" (CharAt var56 53)))
(assert (= "6" (CharAt var35 520)))
(assert (= "1" (CharAt var38 221)))
(assert (= "G" (CharAt var1 822)))
(assert (= "D" (CharAt var20 416)))
(assert (= "<" (CharAt var52 44)))
(assert (= "\\" (CharAt var30 55)))
(assert (= "%" (CharAt var47 286)))
(assert (= "U" (CharAt var27 894)))
(assert (= "1" (CharAt var11 549)))
(assert (= "+" (CharAt var9 80)))
(assert (= "$" (CharAt var45 975)))
(assert (= "<" (CharAt var24 132)))
(assert (= "i" (CharAt var8 438)))
(assert (= "!" (CharAt var50 728)))
(assert (= "|" (CharAt var27 514)))
(assert (= "R" (CharAt var53 53)))
(assert (= "1" (CharAt var53 431)))
(assert (= "I" (CharAt var25 634)))
(assert (= "]" (CharAt var13 506)))
(assert (= "6" (CharAt var54 768)))
(assert (= "M" (CharAt var36 710)))
(assert (= "\\" (CharAt var7 90)))
(assert (= "_" (CharAt var33 945)))
(assert (= "E" (CharAt var50 603)))
(assert (= "7" (CharAt var40 57)))
(assert (= "'" (CharAt var6 459)))
(assert (= "$" (CharAt var0 292)))
(assert (= "p" (CharAt var50 558)))
(assert (= "p" (CharAt var19 308)))
(assert (= "z" (CharAt var34 424)))
(assert (= "<" (CharAt var33 854)))
(assert (= "'" (CharAt var39 163)))
(assert (= "0" (CharAt var0 417)))
(assert (= "(" (CharAt var24 301)))
(assert (= "l" (CharAt var43 422)))
(assert (= "/" (CharAt var11 759)))
(assert (= "M" (CharAt var39 362)))
(assert (= "5" (CharAt var8 388)))
(assert (= ":" (CharAt var45 607)))
(assert (= "{" (CharAt var37 546)))
(assert (= "h" (CharAt var41 233)))
(assert (= "m" (CharAt var16 965)))
(assert (= "Q" (CharAt var39 171)))
(assert (= ":" (CharAt var44 348)))
(assert (= "q" (CharAt var6 193)))
(assert (= "Y" (CharAt var23 407)))
(assert (= "@" (CharAt var20 491)))
(assert (= "d" (CharAt var5 216)))
(assert (= "F" (CharAt var16 408)))
(assert (= "?" (CharAt var32 991)))
(assert (= "f" (CharAt var34 706)))
(assert (= "\\" (CharAt var50 80)))
(assert (= "s" (CharAt var21 328)))
(assert (= "(" (CharAt var14 271)))
(assert (= "H" (CharAt var13 229)))
(assert (= "d" (CharAt var4 161)))
(assert (= "A" (CharAt var45 541)))
(assert (= "s" (CharAt var25 535)))
(assert (= "*" (CharAt var20 401)))
(assert (= "l" (CharAt var23 665)))
(assert (= "1" (CharAt var23 856)))
(assert (= "~" (CharAt var52 196)))
(assert (= "q" (CharAt var18 143)))
(assert (= "Y" (CharAt var48 513)))
(assert (= "[" (CharAt var32 942)))
(assert (= "r" (CharAt var10 376)))
(assert (= "h" (CharAt var58 487)))
(assert (= "_" (CharAt var50 745)))
(assert (= "L" (CharAt var60 100)))
(assert (= ">" (CharAt var10 518)))
(assert (= "2" (CharAt var38 463)))
(assert (= "x" (CharAt var58 803)))
(assert (= "W" (CharAt var43 652)))
(assert (= "H" (CharAt var10 291)))
(assert (= "f" (CharAt var50 743)))
(assert (= "k" (CharAt var56 567)))
(assert (= "N" (CharAt var37 842)))
(assert (= "w" (CharAt var30 814)))
(assert (= "?" (CharAt var42 997)))
(assert (= "u" (CharAt var18 92)))
(assert (= "J" (CharAt var45 793)))
(assert (= "C" (CharAt var16 177)))
(assert (= "X" (CharAt var58 534)))
(assert (= "+" (CharAt var16 416)))
(assert (= "?" (CharAt var26 329)))
(assert (= "A" (CharAt var23 800)))
(assert (= "9" (CharAt var20 884)))
(assert (= "&" (CharAt var17 488)))
(assert (= ")" (CharAt var28 659)))
(assert (= "O" (CharAt var20 919)))
(assert (= "&" (CharAt var23 590)))
(assert (= "P" (CharAt var16 7)))
(assert (= "g" (CharAt var9 23)))
(assert (= "t" (CharAt var19 355)))
(assert (= "S" (CharAt var57 84)))
(assert (= "4" (CharAt var36 171)))
(assert (= "R" (CharAt var59 718)))
(assert (= "h" (CharAt var0 311)))
(assert (= "l" (CharAt var24 522)))
(assert (= "y" (CharAt var19 341)))
(assert (= ")" (CharAt var36 729)))
(assert (= ":" (CharAt var28 269)))
(assert (= "u" (CharAt var20 923)))
(assert (= "#" (CharAt var13 26)))
(assert (= "L" (CharAt var51 257)))
(assert (= "H" (CharAt var59 340)))
(assert (= "d" (CharAt var19 408)))
(assert (= "n" (CharAt var52 965)))
(assert (= "L" (CharAt var18 218)))
(assert (= "K" (CharAt var42 759)))
(assert (= "f" (CharAt var24 452)))
(assert (= "1" (CharAt var19 709)))
(assert (= "p" (CharAt var18 926)))
(assert (= "M" (CharAt var52 252)))
(assert (= "w" (CharAt var60 432)))
(assert (= "R" (CharAt var39 937)))
(assert (= "i" (CharAt var41 236)))
(assert (= "Q" (CharAt var54 645)))
(assert (= "f" (CharAt var0 893)))
(assert (= "D" (CharAt var15 516)))
(assert (= "@" (CharAt var8 615)))
(assert (= "P" (CharAt var3 550)))
(assert (= "E" (CharAt var21 378)))
(assert (= "y" (CharAt var57 155)))
(assert (= "8" (CharAt var7 207)))
(assert (= "@" (CharAt var29 385)))
(assert (= "*" (CharAt var45 328)))
(assert (= "J" (CharAt var35 894)))
(assert (= "$" (CharAt var7 76)))
(assert (= "a" (CharAt var0 144)))
(assert (= "Z" (CharAt var48 698)))
(assert (= "Z" (CharAt var24 192)))
(assert (= "k" (CharAt var32 642)))
(assert (= "B" (CharAt var11 455)))
(assert (= "2" (CharAt var56 819)))
(assert (= ")" (CharAt var60 351)))
(assert (= "Q" (CharAt var39 83)))
(assert (= "+" (CharAt var49 935)))
(assert (= "/" (CharAt var47 502)))
(assert (= "9" (CharAt var43 206)))
(assert (= "$" (CharAt var57 54)))
(assert (= ">" (CharAt var50 656)))
(assert (= "h" (CharAt var60 492)))
(assert (= "<" (CharAt var34 35)))
(assert (= "8" (CharAt var0 135)))
(assert (= "A" (CharAt var7 113)))
(assert (= "5" (CharAt var54 168)))
(assert (= "f" (CharAt var7 53)))
(assert (= "m" (CharAt var5 679)))
(assert (= "\"" (CharAt var41 487)))
(assert (= "u" (CharAt var44 521)))
(assert (= "e" (CharAt var20 504)))
(assert (= "U" (CharAt var59 74)))
(assert (= "/" (CharAt var46 695)))
(assert (= "w" (CharAt var55 455)))
(assert (= "Y" (CharAt var12 630)))
(assert (= "=" (CharAt var48 269)))
(assert (= "!" (CharAt var28 306)))
(assert (= "u" (CharAt var47 965)))
(assert (= "h" (CharAt var29 938)))
(assert (= "1" (CharAt var39 315)))
(assert (= "}" (CharAt var27 415)))
(assert (= "G" (CharAt var8 375)))
(assert (= "y" (CharAt var47 56)))
(assert (= "w" (CharAt var38 636)))
(assert (= "^" (CharAt var52 772)))
(assert (= "^" (CharAt var32 206)))
(assert (= "i" (CharAt var41 809)))
(assert (= "%" (CharAt var60 827)))
(assert (= "s" (CharAt var31 870)))
(assert (= "`" (CharAt var5 842)))
(assert (= "}" (CharAt var50 63)))
(assert (= "W" (CharAt var18 714)))
(assert (= "T" (CharAt var47 184)))
(assert (= "W" (CharAt var33 273)))
(assert (= "P" (CharAt var47 368)))
(assert (= "B" (CharAt var13 436)))
(assert (= "a" (CharAt var49 830)))
(assert (= "L" (CharAt var31 736)))
(assert (= "M" (CharAt var37 597)))
(assert (= "5" (CharAt var36 762)))
(assert (= "T" (CharAt var36 990)))
(assert (= ">" (CharAt var58 837)))
(assert (= "#" (CharAt var0 522)))
(assert (= "{" (CharAt var56 861)))
(assert (= "[" (CharAt var6 694)))
(assert (= "N" (CharAt var10 349)))
(assert (= "B" (CharAt var9 885)))
(assert (= "c" (CharAt var13 961)))
(assert (= "@" (CharAt var60 939)))
(assert (= "~" (CharAt var16 720)))
(assert (= "h" (CharAt var24 545)))
(assert (= "1" (CharAt var13 263)))
(assert (= "V" (CharAt var32 451)))
(assert (= ":" (CharAt var40 389)))
(assert (= "W" (CharAt var29 825)))
(assert (= "|" (CharAt var1 235)))
(assert (= "X" (CharAt var25 832)))
(assert (= "y" (CharAt var14 723)))
(assert (= "z" (CharAt var10 372)))
(assert (= "*" (CharAt var27 33)))
(assert (= "F" (CharAt var38 632)))
(assert (= "," (CharAt var49 679)))
(assert (= "g" (CharAt var25 99)))
(assert (= "k" (CharAt var37 294)))
(assert (= "x" (CharAt var39 850)))
(assert (= "7" (CharAt var24 422)))
(assert (= "$" (CharAt var20 507)))
(assert (= "E" (CharAt var18 18)))
(assert (= "7" (CharAt var42 990)))
(assert (= "5" (CharAt var60 35)))
(assert (= "q" (CharAt var49 449)))
(assert (= "R" (CharAt var46 104)))
(assert (= "6" (CharAt var60 385)))
(assert (= "B" (CharAt var59 42)))
(assert (= "q" (CharAt var16 180)))
(assert (= "\\" (CharAt var46 594)))
(assert (= "N" (CharAt var18 715)))
(assert (= "M" (CharAt var47 147)))
(assert (= "%" (CharAt var49 807)))
(assert (= "," (CharAt var2 715)))
(assert (= "X" (CharAt var20 832)))
(assert (= "G" (CharAt var1 397)))
(assert (= "L" (CharAt var48 996)))
(assert (= "_" (CharAt var17 762)))
(assert (= "?" (CharAt var47 811)))
(assert (= "R" (CharAt var12 602)))
(assert (= "X" (CharAt var28 925)))
(assert (= "@" (CharAt var45 838)))
(assert (= "Q" (CharAt var52 66)))
(assert (= "|" (CharAt var56 923)))
(assert (= "|" (CharAt var41 111)))
(assert (= "9" (CharAt var13 476)))
(assert (= "X" (CharAt var47 903)))
(assert (= "R" (CharAt var14 715)))
(assert (= "H" (CharAt var32 288)))
(assert (= "k" (CharAt var43 946)))
(assert (= "q" (CharAt var14 785)))
(assert (= "s" (CharAt var0 784)))
(assert (= "9" (CharAt var13 832)))
(assert (= "I" (CharAt var35 454)))
(assert (= "R" (CharAt var17 363)))
(assert (= "=" (CharAt var53 824)))
(assert (= "%" (CharAt var45 773)))
(assert (= "O" (CharAt var10 522)))
(assert (= "a" (CharAt var7 420)))
(assert (= "f" (CharAt var39 859)))
(assert (= "." (CharAt var34 209)))
(assert (= "]" (CharAt var44 674)))
(assert (= "q" (CharAt var59 355)))
(assert (= "O" (CharAt var11 998)))
(assert (= "V" (CharAt var8 148)))
(assert (= "5" (CharAt var25 502)))
(assert (= "a" (CharAt var52 20)))
(assert (= "j" (CharAt var12 664)))
(assert (= "H" (CharAt var3 519)))
(assert (= "m" (CharAt var23 641)))
(assert (= "?" (CharAt var47 703)))
(check-sat)